\ENCODING=ISO-8859-1
\Problem name: IloCplex

Minimize
 obj: 0.0036 X(0) + 0.0153 X(1) + 0.0032 X(2) + 0.022 X(3) + 0.0393 X(4)
      + 0.0129 X(5)
Subject To
 c1: 0.8 X(0) + 0.2 X(1) + 0.2 X(2) + 0.6 X(3) <= 70
 c2: 0.8 X(0) + 0.2 X(1) + 0.2 X(2) + 0.6 X(3) >= 69.5
 c3: 0.1 X(0) + 0.3 X(1) + 0.1 X(3) + 0.2 X(4) + 0.2 X(5) <= 150
 c4: 0.1 X(0) + 0.3 X(1) + 0.1 X(3) + 0.2 X(4) + 0.2 X(5) >= 149.5
 c5: 0.5 X(1) + 0.1 X(3) <= 60
 c6: 0.5 X(1) + 0.1 X(3) >= 59.5
End
